c WARNING: for repeatability, setting FPU to use double precision
d VARIABLES            226848       
d CONSTRAINTS          984494       
c ============================[ Problem Statistics ]=============================
c |                                                                             |
c |  Number of variables:        226848                                         |
c |  Number of clauses:          984494                                         |
c |  Parse time:                   0.16 s                                       |
c |                                                                             |
c ============================[ Search Statistics ]==============================
c | Conflicts |          ORIGINAL         |          LEARNT          | Progress |
c |           |    Vars  Clauses Literals |    Limit  Clauses Lit/Cl |          |
c ===============================================================================
c |       100 |  186586   880072  2133649 |   322693       99     26 | 17.748 % |
c |       250 |  186586   880072  2133649 |   354962      249     40 | 17.748 % |
c |       475 |  186586   880067  2133637 |   390458      474    182 | 17.748 % |
c |       812 |  186586   880067  2133637 |   429504      811    138 | 17.748 % |
c |      1318 |  186586   880067  2133637 |   472454     1317    137 | 17.748 % |
c |      2077 |  186586   880067  2133637 |   519700     2076    132 | 17.748 % |
c |      3216 |  186586   880067  2133637 |   571670     3215    139 | 17.748 % |
c |      4924 |  186586   880067  2133637 |   628837     4923    142 | 17.748 % |
c |      7486 |  186586   880067  2133637 |   691721     7485    157 | 17.748 % |
c |     11330 |  186586   880067  2133637 |   760893    11329    168 | 17.748 % |
c |     17096 |  186586   880067  2133637 |   836982    17095    168 | 17.748 % |
c |     25745 |  186586   880067  2133637 |   920680    25744    160 | 17.748 % |
c |     38719 |  186586   880067  2133637 |  1012749    38718    154 | 17.748 % |
c |     58180 |  186586   880067  2133637 |  1114023    58179    162 | 17.748 % |
c |     87372 |  186586   880067  2133637 |  1225426    87371    169 | 17.748 % |
c |    131161 |  186586   880067  2133637 |  1347969   131160    171 | 17.748 % |
c |    196845 |  186586   880067  2133637 |  1482765   196844    175 | 17.748 % |
c |    295371 |  186586   880067  2133637 |  1631042   295370    178 | 17.748 % |
c |    443160 |  186586   880067  2133637 |  1794146   443159    176 | 17.748 % |
c |    664843 |  186586   880067  2133637 |  1973561   664842    169 | 17.748 % |
c |    997368 |  186586   880067  2133637 |  2170917   997367    180 | 17.748 % |
c |   1496156 |  186586   880067  2133637 |  2388009  1496155    173 | 17.748 % |
c ===============================================================================
c restarts              : 3866
c conflicts             : 1981033        (1104 /sec)
c decisions             : 4989979        (0.00 % random) (2781 /sec)
c propagations          : 2980595419     (1660943 /sec)
c conflict literals     : 346121053      (41.27 % deleted)
d RESTARTS             3866
d FAILURES             1981033      
d NODES                4989979      
d BACKTRACKS           4989979      
d PROPAGATIONS         2980595419   
d NOGOODSIZE           174.72 
d MEMORY               1669.00 
d TIME                 1794.52 

s UNKNOWN
